NAME          
ROWS
 N  OBJ
 L  c1
 L  c2
 L  c3
 L  c4
 L  c5
COLUMNS
    MARKER    'MARKER'                 'INTORG'
    x[1]      c1        448
    x[1]      c2        919
    x[1]      c3        889
    x[1]      c4        73
    x[1]      c5        792
    x[1]      OBJ       -84
    x[2]      c1        720
    x[2]      c2        270
    x[2]      c3        135
    x[2]      c4        570
    x[2]      c5        830
    x[2]      OBJ       -99
    x[3]      c1        74
    x[3]      c2        285
    x[3]      c3        369
    x[3]      c4        441
    x[3]      c5        846
    x[3]      OBJ       -111
    x[4]      c1        363
    x[4]      c2        14
    x[4]      c3        940
    x[4]      c4        727
    x[4]      c5        588
    x[4]      OBJ       -831
    x[5]      c1        6
    x[5]      c2        42
    x[5]      c3        115
    x[5]      c4        439
    x[5]      c5        591
    x[5]      OBJ       -802
    x[6]      c1        33
    x[6]      c2        680
    x[6]      c3        958
    x[6]      c4        908
    x[6]      c5        19
    x[6]      OBJ       -82
    x[7]      c1        656
    x[7]      c2        6
    x[7]      c3        559
    x[7]      c4        100
    x[7]      c5        844
    x[7]      OBJ       -270
    x[8]      c1        95
    x[8]      c2        267
    x[8]      c3        33
    x[8]      c4        450
    x[8]      c5        766
    x[8]      OBJ       -221
    x[9]      c1        752
    x[9]      c2        710
    x[9]      c3        757
    x[9]      c4        362
    x[9]      c5        162
    x[9]      OBJ       -217
    x[10]     c1        623
    x[10]     c2        846
    x[10]     c3        738
    x[10]     c4        198
    x[10]     c5        78
    x[10]     OBJ       -806
    x[11]     c1        979
    x[11]     c2        467
    x[11]     c3        156
    x[11]     c4        86
    x[11]     c5        164
    x[11]     OBJ       -619
    x[12]     c1        712
    x[12]     c2        934
    x[12]     c3        235
    x[12]     c4        938
    x[12]     c5        752
    x[12]     OBJ       -203
    x[13]     c1        725
    x[13]     c2        47
    x[13]     c3        604
    x[13]     c4        267
    x[13]     c5        816
    x[13]     OBJ       -720
    x[14]     c1        670
    x[14]     c2        805
    x[14]     c3        498
    x[14]     c4        63
    x[14]     c5        139
    x[14]     OBJ       -827
    x[15]     c1        867
    x[15]     c2        246
    x[15]     c3        930
    x[15]     c4        316
    x[15]     c5        758
    x[15]     OBJ       -967
RHS
    rhs       c1        3862
    rhs       c2        3269
    rhs       c3        3958
    rhs       c4        2969
    rhs       c5        4072
RANGES
BOUNDS
 BV bounds    x[1]
 BV bounds    x[2]
 BV bounds    x[3]
 BV bounds    x[4]
 BV bounds    x[5]
 BV bounds    x[6]
 BV bounds    x[7]
 BV bounds    x[8]
 BV bounds    x[9]
 BV bounds    x[10]
 BV bounds    x[11]
 BV bounds    x[12]
 BV bounds    x[13]
 BV bounds    x[14]
 BV bounds    x[15]
ENDATA
